benchmarks/verilog/factorization16.cnf
p cnf 371 1224
c ind 353 352 351 350 345 349 344 343 348 342 0
c ind 341 340 339 338 347 346 1 0
c ret 354 364 365 366 367 368 369 355 356 357 0
c ret 358 359 360 361 362 363 0
2 3 294 -297 -354 0
2 3 -294 -297 354 0
-2 -3 0
-2 -294 -354 0
-2 297 0
-2 294 354 0
3 -4 355 0
3 4 -355 0
-3 -4 -355 0
-3 4 355 0
4 -5 -289 0
4 5 289 0
-4 5 -289 0
-4 -5 289 0
5 6 254 0
-5 -6 0
-5 -254 0
6 -7 -344 -353 0
-6 344 0
-6 353 0
-6 7 0
7 -8 -249 0
7 8 249 0
-7 8 -249 0
-7 -8 249 0
8 9 214 0
-8 -9 0
-8 -214 0
9 -10 -344 -352 0
-9 344 0
-9 352 0
-9 10 0
10 -11 -209 0
10 11 209 0
-10 11 -209 0
-10 -11 209 0
11 12 174 0
-11 -12 0
-11 -174 0
12 -13 -344 -351 0
-12 344 0
-12 351 0
-12 13 0
13 -14 -169 0
13 14 169 0
-13 14 -169 0
-13 -14 169 0
14 15 134 0
-14 -15 0
-14 -134 0
15 -16 -344 -350 0
-15 344 0
-15 350 0
-15 16 0
16 -17 -129 0
16 17 129 0
-16 17 -129 0
-16 -17 129 0
17 18 94 0
-17 -18 0
-17 -94 0
18 -19 -344 -349 0
-18 344 0
-18 349 0
-18 19 0
19 -20 -92 0
19 20 92 0
-19 20 -92 0
-19 -20 92 0
20 21 55 0
-20 -21 0
-20 -55 0
21 -22 -344 -348 0
-21 344 0
-21 348 0
-21 22 0
22 23 -24 0
22 -23 24 346 0
22 -23 24 344 0
-22 23 24 0
-22 -23 -24 0
-22 24 -344 -346 0
23 -345 -347 0
-23 345 0
-23 347 0
24 25 52 0
-24 -25 0
-24 -52 0
25 26 27 0
-25 -26 0
-25 -27 0
26 -343 -344 -346 -347 0
-26 347 0
-26 343 0
-26 346 0
-26 344 0
27 28 -49 0
-27 -28 0
-27 49 0
28 29 30 0
-28 -29 0
-28 -30 0
29 -342 -343 -346 -347 0
-29 347 0
-29 342 0
-29 346 0
-29 343 0
30 31 -46 0
-30 -31 0
-30 46 0
31 32 33 0
-31 -32 0
-31 -33 0
32 -341 -342 -346 -347 0
-32 347 0
-32 341 0
-32 346 0
-32 342 0
33 34 -43 0
-33 -34 0
-33 43 0
34 35 36 0
-34 -35 0
-34 -36 0
35 -340 -341 -346 -347 0
-35 347 0
-35 340 0
-35 346 0
-35 341 0
36 37 -40 0
-36 -37 0
-36 40 0
37 38 39 0
-37 -38 0
-37 -39 0
38 -338 -339 -346 -347 0
-38 347 0
-38 338 0
-38 346 0
-38 339 0
39 -339 -340 -346 -347 0
-39 347 0
-39 339 0
-39 346 0
-39 340 0
40 41 -42 0
40 -41 42 0
-40 -41 -42 0
-40 41 42 0
41 -341 -346 0
-41 341 0
-41 346 0
42 -340 -347 0
-42 340 0
-42 347 0
43 44 -45 0
43 -44 45 0
-43 -44 -45 0
-43 44 45 0
44 -342 -346 0
-44 342 0
-44 346 0
45 -341 -347 0
-45 341 0
-45 347 0
46 47 -48 0
46 -47 48 0
-46 -47 -48 0
-46 47 48 0
47 -343 -346 0
-47 343 0
-47 346 0
48 -342 -347 0
-48 342 0
-48 347 0
49 50 -51 0
49 -50 51 0
-49 -50 -51 0
-49 50 51 0
50 -343 -347 0
-50 343 0
-50 347 0
51 -344 -346 0
-51 344 0
-51 346 0
52 -53 -54 0
52 53 54 0
-52 53 -54 0
-52 -53 54 0
53 -344 -347 0
-53 344 0
-53 347 0
54 -345 -346 0
-54 345 0
-54 346 0
55 56 -90 0
-55 -56 0
-55 90 0
56 57 59 0
-56 -57 0
-56 -59 0
57 -58 -343 -348 0
-57 343 0
-57 348 0
-57 58 0
25 -52 58 0
-25 52 58 0
-25 -52 -58 0
25 52 -58 0
59 60 -88 0
-59 -60 0
-59 88 0
60 61 63 0
-60 -61 0
-60 -63 0
61 -62 -342 -348 0
-61 342 0
-61 348 0
-61 62 0
-28 -49 62 0
28 49 62 0
28 -49 -62 0
-28 49 -62 0
63 64 -86 0
-63 -64 0
-63 86 0
64 65 67 0
-64 -65 0
-64 -67 0
65 -66 -341 -348 0
-65 341 0
-65 348 0
-65 66 0
-31 -46 66 0
31 46 66 0
31 -46 -66 0
-31 46 -66 0
67 68 -84 0
-67 -68 0
-67 84 0
68 69 71 0
-68 -69 0
-68 -71 0
69 -70 -340 -348 0
-69 340 0
-69 348 0
-69 70 0
-34 -43 70 0
34 43 70 0
34 -43 -70 0
-34 43 -70 0
71 72 -82 0
-71 -72 0
-71 82 0
72 73 75 0
-72 -73 0
-72 -75 0
73 -74 -339 -348 0
-73 339 0
-73 348 0
-73 74 0
-37 -40 74 0
37 40 74 0
37 -40 -74 0
-37 40 -74 0
75 -76 -80 0
-75 76 0
-75 80 0
76 -77 -338 -348 0
-76 338 0
-76 348 0
-76 77 0
38 77 -78 79 0
-38 77 -78 -79 0
38 77 78 -79 0
-38 -77 79 0
-38 -77 78 0
-77 78 79 0
38 -77 -78 -79 0
78 -340 -346 0
-78 340 0
-78 346 0
79 -339 -347 0
-79 339 0
-79 347 0
74 80 -81 0
-74 80 81 0
-74 -80 -81 0
74 -80 81 0
81 -339 -348 0
-81 339 0
-81 348 0
70 82 -83 0
-70 82 83 0
-70 -82 -83 0
70 -82 83 0
83 -340 -348 0
-83 340 0
-83 348 0
66 84 -85 0
-66 84 85 0
-66 -84 -85 0
66 -84 85 0
85 -341 -348 0
-85 341 0
-85 348 0
62 86 -87 0
-62 86 87 0
-62 -86 -87 0
62 -86 87 0
87 -342 -348 0
-87 342 0
-87 348 0
58 88 -89 0
-58 88 89 0
-58 -88 -89 0
58 -88 89 0
89 -343 -348 0
-89 343 0
-89 348 0
-22 90 91 0
22 90 -91 0
-22 -90 -91 0
22 -90 91 0
91 -344 -348 0
-91 344 0
-91 348 0
92 -93 348 0
92 93 -345 -348 0
-92 345 -348 0
-92 93 348 0
-92 -93 -348 0
-24 93 -345 -347 0
-51 93 -345 -347 0
-93 345 0
-93 347 0
24 51 -93 0
94 95 -127 0
-94 -95 0
-94 127 0
95 96 98 0
-95 -96 0
-95 -98 0
96 -97 -343 -349 0
-96 343 0
-96 349 0
-96 97 0
-56 -90 97 0
56 90 97 0
56 -90 -97 0
-56 90 -97 0
98 99 -125 0
-98 -99 0
-98 125 0
99 100 102 0
-99 -100 0
-99 -102 0
100 -101 -342 -349 0
-100 342 0
-100 349 0
-100 101 0
-60 -88 101 0
60 88 101 0
60 -88 -101 0
-60 88 -101 0
102 103 -123 0
-102 -103 0
-102 123 0
103 104 106 0
-103 -104 0
-103 -106 0
104 -105 -341 -349 0
-104 341 0
-104 349 0
-104 105 0
-64 -86 105 0
64 86 105 0
64 -86 -105 0
-64 86 -105 0
106 107 -121 0
-106 -107 0
-106 121 0
107 108 110 0
-107 -108 0
-107 -110 0
108 -109 -340 -349 0
-108 340 0
-108 349 0
-108 109 0
-68 -84 109 0
68 84 109 0
68 -84 -109 0
-68 84 -109 0
110 111 -119 0
-110 -111 0
-110 119 0
111 112 114 0
-111 -112 0
-111 -114 0
112 -113 -339 -349 0
-112 339 0
-112 349 0
-112 113 0
-72 -82 113 0
72 82 113 0
72 -82 -113 0
-72 82 -113 0
114 -115 -117 0
-114 115 0
-114 117 0
115 -116 -338 -349 0
-115 338 0
-115 349 0
-115 116 0
76 -80 116 0
-76 80 116 0
-76 -80 -116 0
76 80 -116 0
113 117 -118 0
-113 117 118 0
-113 -117 -118 0
113 -117 118 0
118 -339 -349 0
-118 339 0
-118 349 0
109 119 -120 0
-109 119 120 0
-109 -119 -120 0
109 -119 120 0
120 -340 -349 0
-120 340 0
-120 349 0
105 121 -122 0
-105 121 122 0
-105 -121 -122 0
105 -121 122 0
122 -341 -349 0
-122 341 0
-122 349 0
101 123 -124 0
-101 123 124 0
-101 -123 -124 0
101 -123 124 0
124 -342 -349 0
-124 342 0
-124 349 0
-97 125 126 0
97 125 -126 0
-97 -125 -126 0
97 -125 126 0
126 -343 -349 0
-126 343 0
-126 349 0
-19 127 128 0
19 127 -128 0
-19 -127 -128 0
19 -127 128 0
128 -344 -349 0
-128 344 0
-128 349 0
129 -130 -131 0
129 130 131 0
-129 130 -131 0
-129 -130 131 0
130 -345 -349 0
-130 345 0
-130 349 0
131 132 133 0
-131 -132 0
-131 -133 0
-93 132 -348 0
-132 348 0
93 -132 0
20 -92 133 0
-20 -133 0
92 -133 0
134 135 -167 0
-134 -135 0
-134 167 0
135 136 138 0
-135 -136 0
-135 -138 0
136 -137 -343 -350 0
-136 343 0
-136 350 0
-136 137 0
-95 -127 137 0
95 127 137 0
95 -127 -137 0
-95 127 -137 0
138 139 -165 0
-138 -139 0
-138 165 0
139 140 142 0
-139 -140 0
-139 -142 0
140 -141 -342 -350 0
-140 342 0
-140 350 0
-140 141 0
-99 -125 141 0
99 125 141 0
99 -125 -141 0
-99 125 -141 0
142 143 -163 0
-142 -143 0
-142 163 0
143 144 146 0
-143 -144 0
-143 -146 0
144 -145 -341 -350 0
-144 341 0
-144 350 0
-144 145 0
-103 -123 145 0
103 123 145 0
103 -123 -145 0
-103 123 -145 0
146 147 -161 0
-146 -147 0
-146 161 0
147 148 150 0
-147 -148 0
-147 -150 0
148 -149 -340 -350 0
-148 340 0
-148 350 0
-148 149 0
-107 -121 149 0
107 121 149 0
107 -121 -149 0
-107 121 -149 0
150 151 -159 0
-150 -151 0
-150 159 0
151 152 154 0
-151 -152 0
-151 -154 0
152 -153 -339 -350 0
-152 339 0
-152 350 0
-152 153 0
-111 -119 153 0
111 119 153 0
111 -119 -153 0
-111 119 -153 0
154 -155 -157 0
-154 155 0
-154 157 0
155 -156 -338 -350 0
-155 338 0
-155 350 0
-155 156 0
115 -117 156 0
-115 117 156 0
-115 -117 -156 0
115 117 -156 0
153 157 -158 0
-153 157 158 0
-153 -157 -158 0
153 -157 158 0
158 -339 -350 0
-158 339 0
-158 350 0
149 159 -160 0
-149 159 160 0
-149 -159 -160 0
149 -159 160 0
160 -340 -350 0
-160 340 0
-160 350 0
145 161 -162 0
-145 161 162 0
-145 -161 -162 0
145 -161 162 0
162 -341 -350 0
-162 341 0
-162 350 0
-141 163 164 0
141 163 -164 0
-141 -163 -164 0
141 -163 164 0
164 -342 -350 0
-164 342 0
-164 350 0
-137 165 166 0
137 165 -166 0
-137 -165 -166 0
137 -165 166 0
166 -343 -350 0
-166 343 0
-166 350 0
-16 167 168 0
16 167 -168 0
-16 -167 -168 0
16 -167 168 0
168 -344 -350 0
-168 344 0
-168 350 0
169 -170 -171 0
169 170 171 0
-169 170 -171 0
-169 -170 171 0
170 -345 -350 0
-170 345 0
-170 350 0
171 172 173 0
-171 -172 0
-171 -173 0
131 172 -345 -349 0
-172 345 0
-172 349 0
-131 -172 0
17 -129 173 0
-17 -173 0
129 -173 0
174 175 -207 0
-174 -175 0
-174 207 0
175 176 178 0
-175 -176 0
-175 -178 0
176 -177 -343 -351 0
-176 343 0
-176 351 0
-176 177 0
-135 -167 177 0
135 167 177 0
135 -167 -177 0
-135 167 -177 0
178 179 -205 0
-178 -179 0
-178 205 0
179 180 182 0
-179 -180 0
-179 -182 0
180 -181 -342 -351 0
-180 342 0
-180 351 0
-180 181 0
-139 -165 181 0
139 165 181 0
139 -165 -181 0
-139 165 -181 0
182 183 -203 0
-182 -183 0
-182 203 0
183 184 186 0
-183 -184 0
-183 -186 0
184 -185 -341 -351 0
-184 341 0
-184 351 0
-184 185 0
-143 -163 185 0
143 163 185 0
143 -163 -185 0
-143 163 -185 0
186 187 -201 0
-186 -187 0
-186 201 0
187 188 190 0
-187 -188 0
-187 -190 0
188 -189 -340 -351 0
-188 340 0
-188 351 0
-188 189 0
-147 -161 189 0
147 161 189 0
147 -161 -189 0
-147 161 -189 0
190 191 -199 0
-190 -191 0
-190 199 0
191 192 194 0
-191 -192 0
-191 -194 0
192 -193 -339 -351 0
-192 339 0
-192 351 0
-192 193 0
-151 -159 193 0
151 159 193 0
151 -159 -193 0
-151 159 -193 0
194 -195 -197 0
-194 195 0
-194 197 0
195 -196 -338 -351 0
-195 338 0
-195 351 0
-195 196 0
155 -157 196 0
-155 157 196 0
-155 -157 -196 0
155 157 -196 0
193 197 -198 0
-193 197 198 0
-193 -197 -198 0
193 -197 198 0
198 -339 -351 0
-198 339 0
-198 351 0
189 199 -200 0
-189 199 200 0
-189 -199 -200 0
189 -199 200 0
200 -340 -351 0
-200 340 0
-200 351 0
-185 201 202 0
185 201 -202 0
-185 -201 -202 0
185 -201 202 0
202 -341 -351 0
-202 341 0
-202 351 0
-181 203 204 0
181 203 -204 0
-181 -203 -204 0
181 -203 204 0
204 -342 -351 0
-204 342 0
-204 351 0
-177 205 206 0
177 205 -206 0
-177 -205 -206 0
177 -205 206 0
206 -343 -351 0
-206 343 0
-206 351 0
-13 207 208 0
13 207 -208 0
-13 -207 -208 0
13 -207 208 0
208 -344 -351 0
-208 344 0
-208 351 0
209 -210 -211 0
209 210 211 0
-209 210 -211 0
-209 -210 211 0
210 -345 -351 0
-210 345 0
-210 351 0
211 212 213 0
-211 -212 0
-211 -213 0
171 212 -345 -350 0
-212 345 0
-212 350 0
-171 -212 0
14 -169 213 0
-14 -213 0
169 -213 0
214 215 -247 0
-214 -215 0
-214 247 0
215 216 218 0
-215 -216 0
-215 -218 0
216 -217 -343 -352 0
-216 343 0
-216 352 0
-216 217 0
-175 -207 217 0
175 207 217 0
175 -207 -217 0
-175 207 -217 0
218 219 -245 0
-218 -219 0
-218 245 0
219 220 222 0
-219 -220 0
-219 -222 0
220 -221 -342 -352 0
-220 342 0
-220 352 0
-220 221 0
-179 -205 221 0
179 205 221 0
179 -205 -221 0
-179 205 -221 0
222 223 -243 0
-222 -223 0
-222 243 0
223 224 226 0
-223 -224 0
-223 -226 0
224 -225 -341 -352 0
-224 341 0
-224 352 0
-224 225 0
-183 -203 225 0
183 203 225 0
183 -203 -225 0
-183 203 -225 0
226 227 -241 0
-226 -227 0
-226 241 0
227 228 230 0
-227 -228 0
-227 -230 0
228 -229 -340 -352 0
-228 340 0
-228 352 0
-228 229 0
-187 -201 229 0
187 201 229 0
187 -201 -229 0
-187 201 -229 0
230 231 -239 0
-230 -231 0
-230 239 0
231 232 234 0
-231 -232 0
-231 -234 0
232 -233 -339 -352 0
-232 339 0
-232 352 0
-232 233 0
-191 -199 233 0
191 199 233 0
191 -199 -233 0
-191 199 -233 0
234 -235 -237 0
-234 235 0
-234 237 0
235 -236 -338 -352 0
-235 338 0
-235 352 0
-235 236 0
195 -197 236 0
-195 197 236 0
-195 -197 -236 0
195 197 -236 0
233 237 -238 0
-233 237 238 0
-233 -237 -238 0
233 -237 238 0
238 -339 -352 0
-238 339 0
-238 352 0
-229 239 240 0
229 239 -240 0
-229 -239 -240 0
229 -239 240 0
240 -340 -352 0
-240 340 0
-240 352 0
-225 241 242 0
225 241 -242 0
-225 -241 -242 0
225 -241 242 0
242 -341 -352 0
-242 341 0
-242 352 0
-221 243 244 0
221 243 -244 0
-221 -243 -244 0
221 -243 244 0
244 -342 -352 0
-244 342 0
-244 352 0
-217 245 246 0
217 245 -246 0
-217 -245 -246 0
217 -245 246 0
246 -343 -352 0
-246 343 0
-246 352 0
-10 247 248 0
10 247 -248 0
-10 -247 -248 0
10 -247 248 0
248 -344 -352 0
-248 344 0
-248 352 0
249 -250 -251 0
249 250 251 0
-249 250 -251 0
-249 -250 251 0
250 -345 -352 0
-250 345 0
-250 352 0
251 252 253 0
-251 -252 0
-251 -253 0
211 252 -345 -351 0
-252 345 0
-252 351 0
-211 -252 0
11 -209 253 0
-11 -253 0
209 -253 0
254 255 -287 0
-254 -255 0
-254 287 0
255 256 258 0
-255 -256 0
-255 -258 0
256 -257 -343 -353 0
-256 343 0
-256 353 0
-256 257 0
-215 -247 257 0
215 247 257 0
215 -247 -257 0
-215 247 -257 0
258 259 -285 0
-258 -259 0
-258 285 0
259 260 262 0
-259 -260 0
-259 -262 0
260 -261 -342 -353 0
-260 342 0
-260 353 0
-260 261 0
-219 -245 261 0
219 245 261 0
219 -245 -261 0
-219 245 -261 0
262 263 -283 0
-262 -263 0
-262 283 0
263 264 266 0
-263 -264 0
-263 -266 0
264 -265 -341 -353 0
-264 341 0
-264 353 0
-264 265 0
-223 -243 265 0
223 243 265 0
223 -243 -265 0
-223 243 -265 0
266 267 -281 0
-266 -267 0
-266 281 0
267 268 270 0
-267 -268 0
-267 -270 0
268 -269 -340 -353 0
-268 340 0
-268 353 0
-268 269 0
-227 -241 269 0
227 241 269 0
227 -241 -269 0
-227 241 -269 0
270 271 -279 0
-270 -271 0
-270 279 0
271 272 274 0
-271 -272 0
-271 -274 0
272 -273 -339 -353 0
-272 339 0
-272 353 0
-272 273 0
-231 -239 273 0
231 239 273 0
231 -239 -273 0
-231 239 -273 0
274 -275 -277 0
-274 275 0
-274 277 0
275 -276 -338 -353 0
-275 338 0
-275 353 0
-275 276 0
235 -237 276 0
-235 237 276 0
-235 -237 -276 0
235 237 -276 0
-273 277 278 0
273 277 -278 0
-273 -277 -278 0
273 -277 278 0
278 -339 -353 0
-278 339 0
-278 353 0
-269 279 280 0
269 279 -280 0
-269 -279 -280 0
269 -279 280 0
280 -340 -353 0
-280 340 0
-280 353 0
-265 281 282 0
265 281 -282 0
-265 -281 -282 0
265 -281 282 0
282 -341 -353 0
-282 341 0
-282 353 0
-261 283 284 0
261 283 -284 0
-261 -283 -284 0
261 -283 284 0
284 -342 -353 0
-284 342 0
-284 353 0
-257 285 286 0
257 285 -286 0
-257 -285 -286 0
257 -285 286 0
286 -343 -353 0
-286 343 0
-286 353 0
-7 287 288 0
7 287 -288 0
-7 -287 -288 0
7 -287 288 0
288 -344 -353 0
-288 344 0
-288 353 0
289 -290 -291 0
289 290 291 0
-289 290 -291 0
-289 -290 291 0
290 -345 -353 0
-290 345 0
-290 353 0
291 292 293 0
-291 -292 0
-291 -293 0
251 292 -345 -352 0
-292 345 0
-292 352 0
-251 -292 0
8 -249 293 0
-8 -293 0
249 -293 0
294 295 296 0
-294 -295 0
-294 -296 0
291 295 -345 -353 0
-295 345 0
-295 353 0
-291 -295 0
5 -289 296 0
-5 -296 0
289 -296 0
297 -298 -299 -356 0
297 298 -299 356 0
-297 299 0
-297 298 -356 0
-297 -298 356 0
-255 -287 298 0
255 287 298 0
255 -287 -298 0
-255 287 -298 0
299 -300 -301 -357 0
299 300 -301 357 0
-299 301 0
-299 300 -357 0
-299 -300 357 0
-259 -285 300 0
259 285 300 0
259 -285 -300 0
-259 285 -300 0
301 -302 -303 -358 0
301 302 -303 358 0
-301 303 0
-301 302 -358 0
-301 -302 358 0
-263 -283 302 0
263 283 302 0
263 -283 -302 0
-263 283 -302 0
303 -304 -305 -359 0
303 304 -305 359 0
-303 305 0
-303 304 -359 0
-303 -304 359 0
-267 -281 304 0
267 281 304 0
267 -281 -304 0
-267 281 -304 0
305 -306 -307 -360 0
305 306 -307 360 0
-305 307 0
-305 306 -360 0
-305 -306 360 0
-271 -279 306 0
271 279 306 0
271 -279 -306 0
-271 279 -306 0
307 -308 -309 -361 0
307 308 -309 361 0
-307 309 0
-307 308 -361 0
-307 -308 361 0
275 -277 308 0
-275 277 308 0
-275 -277 -308 0
275 277 -308 0
309 -310 -312 -362 0
309 310 -312 362 0
-309 312 0
-309 310 -362 0
-309 -310 362 0
276 310 -311 0
-276 310 311 0
-276 -310 -311 0
276 -310 311 0
311 -338 -353 0
-311 338 0
-311 353 0
312 -313 -315 -363 0
312 313 -315 363 0
-312 315 0
-312 313 -363 0
-312 -313 363 0
236 313 -314 0
-236 313 314 0
-236 -313 -314 0
236 -313 314 0
314 -338 -352 0
-314 338 0
-314 352 0
315 -316 -318 -364 0
315 316 -318 364 0
-315 318 0
-315 316 -364 0
-315 -316 364 0
196 316 -317 0
-196 316 317 0
-196 -316 -317 0
196 -316 317 0
317 -338 -351 0
-317 338 0
-317 351 0
318 -319 -321 -365 0
318 319 -321 365 0
-318 321 0
-318 319 -365 0
-318 -319 365 0
156 319 -320 0
-156 319 320 0
-156 -319 -320 0
156 -319 320 0
320 -338 -350 0
-320 338 0
-320 350 0
321 -322 -324 -366 0
321 322 -324 366 0
-321 324 0
-321 322 -366 0
-321 -322 366 0
116 322 -323 0
-116 322 323 0
-116 -322 -323 0
116 -322 323 0
323 -338 -349 0
-323 338 0
-323 349 0
324 325 327 -330 367 0
324 -325 327 -330 -367 0
-324 -327 0
-324 -325 367 0
-324 330 0
-324 325 -367 0
-77 325 326 0
77 325 -326 0
-77 -325 -326 0
77 -325 326 0
326 -338 -348 0
-326 338 0
-326 348 0
327 -328 -338 0
327 -338 -346 369 0
-327 338 0
-327 328 346 0
-327 328 -369 0
328 -329 343 344 345 0
-328 329 0
-328 -345 0
-328 -343 0
-328 -344 0
329 339 340 341 342 0
-329 -342 0
-329 -341 0
-329 -339 0
-329 -340 0
330 331 334 335 368 0
330 -331 334 335 -368 0
-330 -334 0
-330 331 -368 0
-330 -335 0
-330 -331 368 0
331 332 -333 0
331 -332 333 0
-331 -332 -333 0
-331 332 333 0
332 -339 -346 0
-332 339 0
-332 346 0
333 -338 -347 0
-333 338 0
-333 347 0
334 346 -369 0
334 338 -369 0
-334 369 0
-334 -338 -346 0
335 -336 -337 348 349 0
-335 -348 0
-335 337 0
-335 336 0
-335 -349 0
336 350 351 352 353 0
-336 -353 0
-336 -352 0
-336 -350 0
-336 -351 0
337 -346 347 0
-337 346 0
-337 -347 0
1 -2 0
-1 2 0
370 0

